c description: Random 3-CNF over 16 variables and 68 clauses
c generator: CNFgen (0.9.2)
c copyright: (C) 2012-2022 Massimo Lauria <massimo.lauria@uniroma1.it>
c url: https://massimolauria.net/cnfgen
c command line: cnfgen --output CNF_4.28/16_bit_68_846.cnf randkcnf 3 16 68
c
p cnf 16 68
3 -6 14 0
1 -5 12 0
-7 -14 15 0
-4 -6 -14 0
-8 14 -16 0
-2 12 14 0
1 -15 -16 0
7 10 11 0
7 9 -12 0
-3 6 -8 0
-1 15 16 0
4 -14 -15 0
3 -9 15 0
-10 -15 16 0
-9 11 -14 0
-4 -8 -10 0
2 3 -5 0
1 6 11 0
9 12 -13 0
1 7 -14 0
1 12 14 0
-3 6 13 0
-7 8 -11 0
-6 -9 -13 0
-9 -11 -15 0
-2 -15 16 0
-3 -4 11 0
1 4 -12 0
3 7 9 0
-4 14 -16 0
1 7 10 0
1 -2 -14 0
-7 -13 -15 0
2 10 -12 0
-1 -11 14 0
1 6 14 0
6 -8 14 0
-1 -4 -15 0
6 -12 14 0
-7 -9 13 0
9 11 12 0
-7 11 15 0
-9 -13 14 0
-1 10 -13 0
-2 -5 -12 0
1 8 -9 0
3 -5 -10 0
-4 -6 -7 0
2 6 -15 0
-3 -5 -11 0
-4 -7 10 0
1 2 -6 0
-9 12 16 0
-2 12 -13 0
-1 3 16 0
-1 -5 13 0
-3 13 16 0
5 9 -11 0
-7 13 16 0
2 9 -15 0
-4 8 12 0
6 10 16 0
-3 4 16 0
8 -14 -16 0
-1 -7 -9 0
1 4 -5 0
-10 -12 -16 0
5 -6 -11 0
